





Route 1: 91 67 65 84 66 83 100 53 58 87 75 25 23 21 50 20 19 49 22 24 26 78 59 76 98 60 88 10 11 12 14 16 17 18 48 15 13 54 99 70
Route 2: 69 56 89 61 79 74 80 8 7 9 47 5 46 6 4 2 3 101 71 62 42 43 45 44 41 37 36 38 39 40 73 55 82
Route 3: 97 72 94 95 68 63 51 35 32 30 28 27 29 31 33 34 90 77 52 64 86 85 57 96 93 92 81


